c FILE:  terrorist.clq
p edge 62 153
e 1 2
e 1 5
e 1 9
e 1 11
e 1 17
e 1 23
e 2 3
e 2 4
e 2 5
e 2 9
e 2 11
e 2 17
e 2 23
e 3 4
e 3 6
e 3 8
e 4 8
e 5 6
e 5 9
e 5 10
e 5 11
e 5 17
e 6 12
e 6 19
e 6 30
e 7 9
e 7 12
e 8 12
e 8 13
e 8 14
e 8 20
e 9 10
e 9 11
e 9 17
e 9 23
e 10 17
e 10 23
e 11 17
e 11 19
e 11 23
e 11 30
e 12 13
e 12 14
e 12 17
e 12 20
e 13 20
e 14 22
e 14 23
e 15 17
e 15 21
e 15 23
e 15 55
e 16 20
e 17 18
e 17 19
e 17 21
e 17 22
e 17 23
e 17 25
e 17 28
e 17 29
e 17 30
e 17 32
e 18 21
e 18 22
e 18 23
e 18 28
e 19 20
e 19 22
e 19 26
e 19 30
e 19 34
e 20 23
e 20 24
e 20 26
e 20 30
e 20 31
e 20 34
e 21 22
e 21 23
e 21 25
e 21 28
e 22 23
e 22 28
e 22 29
e 22 30
e 22 32
e 23 25
e 23 27
e 23 28
e 23 29
e 23 30
e 23 32
e 23 33
e 23 38
e 23 45
e 23 49
e 24 26
e 24 31
e 25 28
e 26 30
e 26 31
e 26 34
e 27 28
e 27 39
e 27 42
e 27 43
e 27 44
e 27 51
e 27 52
e 28 32
e 28 49
e 28 58
e 29 30
e 29 35
e 30 34
e 30 35
e 30 36
e 30 37
e 32 58
e 35 36
e 35 37
e 39 40
e 39 44
e 39 49
e 39 62
e 40 44
e 40 52
e 41 44
e 42 48
e 43 51
e 44 50
e 44 51
e 44 52
e 44 59
e 45 46
e 45 47
e 45 48
e 45 53
e 45 54
e 45 56
e 45 57
e 45 60
e 45 61
e 45 62
e 46 62
e 48 56
e 49 62
e 51 52
e 53 57
e 56 57
e 57 62
e 61 62
